0000000000000000
0000000000000000
0000000000000000
0000000000000000
0011110000001110
0011111000001110
0011011100001110
0011001110001110
0011000111011110
0011000011111110
0011000001110000
0011000000110000
0011000000011000
0011000000001110
0011000000000111
0000000000000000